(set-logic QF_FPBV)
(set-option :produce-models true)
(set-info :source |Random FP created by PyMPF|)
(set-info :category random)
(set-info :status sat)
;; fp.from.sbv(BitVec 128)
(declare-const x (_ BitVec 128))
(assert (bvsle x #b11110010111101110011011100010111001001001001000100000110010001100101100111001110111011000111000001100100111001001100000101100110))
;; x should be -17325577250837996897098288736260275866
(declare-const r Float32)
(assert (= r ((_ to_fp 8 24) RTN x)))
(assert (fp.leq r (fp #b1 #b11111010 #b10100001000110010001111)))
(check-sat)
(exit)
